(set-logic HORN)
(declare-fun !inv0 (Int (Array Int Int) (Array Int Int) (Array Int Int) Int ) Bool)
(declare-fun !inv1 (Int (Array Int Int) (Array Int Int) (Array Int Int) Int Bool Int Int ) Bool)
(assert (forall ((SIZE@0 Int)(a@0 (Array Int Int))(b@0 (Array Int Int))(c@0 (Array Int Int))(i@0 Int)) (=> (and (> |SIZE@0| 0) (= |i@0| 0)) (!inv0 |SIZE@0| |a@0| |b@0| |c@0| |i@0|))))
(assert (forall ((SIZE@0 Int)(a@0 (Array Int Int))(b@0 (Array Int Int))(c@0 (Array Int Int))(i@0 Int)(q@0 Bool)(iv@0 Int)(a@1 (Array Int Int))(j@0 Int)) (=> (and (!inv0 |SIZE@0| |a@0| |b@0| |c@0| |i@0|) (not (< |i@0| |SIZE@0|)) (= |a@1| (store |a@0| |iv@0| 1)) (= |j@0| 0) (<= 0 |iv@0|) (< |iv@0| |SIZE@0|)) (!inv1 |SIZE@0| |a@1| |b@0| |c@0| |i@0| |q@0| |iv@0| |j@0|))))
(assert (forall ((SIZE@0 Int)(a@0 (Array Int Int))(b@0 (Array Int Int))(c@0 (Array Int Int))(i@0 Int)(q@0 Bool)(iv@0 Int)(j@0 Int)) (=> (and (!inv1 |SIZE@0| |a@0| |b@0| |c@0| |i@0| |q@0| |iv@0| |j@0|) (< |j@0| |SIZE@0|) (= |j@0| |iv@0|) (not (not (= (select |a@0| |j@0|) 1)))) false)))
(assert (forall ((SIZE@0 Int)(a@0 (Array Int Int))(b@0 (Array Int Int))(c@0 (Array Int Int))(i@0 Int)(q@0 Bool)(i@1 Int)(a@2 (Array Int Int))) (=> (and (!inv0 |SIZE@0| |a@2| |b@0| |c@0| |i@0|) (= |i@1| (+ |i@0| 1)) (not (not (= (select |a@0| |i@0|) 0))) (< |i@0| |SIZE@0|) (= |a@0| (store |a@2| |i@0| 0)) (not (not |q@0|))) (!inv0 |SIZE@0| |a@0| |b@0| |c@0| |i@1|))))
(assert (forall ((SIZE@0 Int)(a@0 (Array Int Int))(b@0 (Array Int Int))(c@0 (Array Int Int))(i@0 Int)(q@0 Bool)(iv@0 Int)(j@0 Int)(j@1 Int)) (=> (and (!inv1 |SIZE@0| |a@0| |b@0| |c@0| |i@0| |q@0| |iv@0| |j@0|) (= |j@1| (+ |j@0| 1)) (< |j@0| |SIZE@0|) (not (= |j@0| |iv@0|))) (!inv1 |SIZE@0| |a@0| |b@0| |c@0| |i@0| |q@0| |iv@0| |j@1|))))
(assert (forall ((SIZE@0 Int)(a@0 (Array Int Int))(b@0 (Array Int Int))(c@0 (Array Int Int))(i@0 Int)(q@0 Bool)(i@1 Int)(b@2 (Array Int Int))(c@2 (Array Int Int))(a@2 (Array Int Int))(a@3 (Array Int Int))) (=> (and (!inv0 |SIZE@0| |a@2| |b@2| |c@2| |i@0|) (= |i@1| (+ |i@0| 1)) (not (= (select |a@0| |i@0|) 0)) (not (= (select |b@0| |i@0|) 0)) (= |c@0| (store |c@2| |i@0| 1)) (< |i@0| |SIZE@0|) (= |a@3| (store |a@2| |i@0| 0)) (not |q@0|) (= |a@0| (store |a@3| |i@0| 1)) (= |b@0| (store |b@2| |i@0| (mod |i@0| 2)))) (!inv0 |SIZE@0| |a@0| |b@0| |c@0| |i@1|))))
(assert (forall ((SIZE@0 Int)(a@0 (Array Int Int))(b@0 (Array Int Int))(c@0 (Array Int Int))(i@0 Int)(q@0 Bool)(i@1 Int)(a@2 (Array Int Int))(b@2 (Array Int Int))(a@3 (Array Int Int))) (=> (and (!inv0 |SIZE@0| |a@2| |b@2| |c@0| |i@0|) (= |i@1| (+ |i@0| 1)) (not (not (= (select |a@0| |i@0|) 0))) (< |i@0| |SIZE@0|) (= |a@3| (store |a@2| |i@0| 0)) (not |q@0|) (= |a@0| (store |a@3| |i@0| 1)) (= |b@0| (store |b@2| |i@0| (mod |i@0| 2)))) (!inv0 |SIZE@0| |a@0| |b@0| |c@0| |i@1|))))
(assert (forall ((SIZE@0 Int)(a@0 (Array Int Int))(b@0 (Array Int Int))(c@0 (Array Int Int))(i@0 Int)(q@0 Bool)(i@1 Int)(b@2 (Array Int Int))(c@2 (Array Int Int))(a@2 (Array Int Int))(a@3 (Array Int Int))) (=> (and (!inv0 |SIZE@0| |a@2| |b@2| |c@2| |i@0|) (= |i@1| (+ |i@0| 1)) (not (= (select |a@0| |i@0|) 0)) (= (select |b@0| |i@0|) 0) (= |c@0| (store |c@2| |i@0| 0)) (< |i@0| |SIZE@0|) (= |a@3| (store |a@2| |i@0| 0)) (not |q@0|) (= |a@0| (store |a@3| |i@0| 1)) (= |b@0| (store |b@2| |i@0| (mod |i@0| 2)))) (!inv0 |SIZE@0| |a@0| |b@0| |c@0| |i@1|))))
(assert (forall ((SIZE@0 Int)(a@0 (Array Int Int))(b@0 (Array Int Int))(c@0 (Array Int Int))(i@0 Int)(q@0 Bool)(iv@0 Int)(j@0 Int)(j@1 Int)) (=> (and (!inv1 |SIZE@0| |a@0| |b@0| |c@0| |i@0| |q@0| |iv@0| |j@0|) (= |j@1| (+ |j@0| 1)) (< |j@0| |SIZE@0|) (= |j@0| |iv@0|) (not (= (select |a@0| |j@0|) 1))) (!inv1 |SIZE@0| |a@0| |b@0| |c@0| |i@0| |q@0| |iv@0| |j@1|))))
(assert (forall ((SIZE@0 Int)(a@0 (Array Int Int))(b@0 (Array Int Int))(c@0 (Array Int Int))(i@0 Int)(q@0 Bool)(i@1 Int)(c@2 (Array Int Int))(a@2 (Array Int Int))) (=> (and (!inv0 |SIZE@0| |a@2| |b@0| |c@2| |i@0|) (= |i@1| (+ |i@0| 1)) (not (= (select |a@0| |i@0|) 0)) (= (select |b@0| |i@0|) 0) (= |c@0| (store |c@2| |i@0| 0)) (< |i@0| |SIZE@0|) (= |a@0| (store |a@2| |i@0| 0)) (not (not |q@0|))) (!inv0 |SIZE@0| |a@0| |b@0| |c@0| |i@1|))))
(assert (forall ((SIZE@0 Int)(a@0 (Array Int Int))(b@0 (Array Int Int))(c@0 (Array Int Int))(i@0 Int)(q@0 Bool)(i@1 Int)(a@2 (Array Int Int))(c@2 (Array Int Int))) (=> (and (!inv0 |SIZE@0| |a@2| |b@0| |c@2| |i@0|) (= |i@1| (+ |i@0| 1)) (not (= (select |a@0| |i@0|) 0)) (not (= (select |b@0| |i@0|) 0)) (= |c@0| (store |c@2| |i@0| 1)) (< |i@0| |SIZE@0|) (= |a@0| (store |a@2| |i@0| 0)) (not (not |q@0|))) (!inv0 |SIZE@0| |a@0| |b@0| |c@0| |i@1|))))
(check-sat)